p cnf 396 1150
1 31 0
-31 -1 0
1 2 36 0
-1 2 35 36 0
-2 1 35 36 0
-35 1 2 36 0
-36 1 2 35 0
1 -2 -35 -36 0
2 -1 -35 -36 0
35 -1 -2 -36 0
36 -1 -2 -35 0
-1 1 0
-1 -72 65 0
-1 -73 66 0
-1 -74 67 0
-1 -75 68 0
-1 -76 69 0
-1 -77 70 0
-1 -78 71 0
-2 2 0
-2 -72 79 0
-2 -73 80 0
-2 -74 81 0
-2 -75 82 0
-2 -76 83 0
-2 -77 84 0
-2 -78 85 0
-36 36 0
-36 -72 114 0
-36 -73 115 0
-36 -74 116 0
-36 -75 117 0
-36 -76 118 0
-36 -77 119 0
-36 -78 120 0
2 3 41 0
-2 -3 0
-2 -41 0
-3 -41 0
3 4 46 0
-3 4 45 46 0
-4 3 45 46 0
-45 3 4 46 0
-46 3 4 45 0
3 -4 -45 -46 0
4 -3 -45 -46 0
45 -3 -4 -46 0
46 -3 -4 -45 0
-3 3 0
-3 -86 79 0
-3 -87 80 0
-3 -88 81 0
-3 -89 82 0
-3 -90 83 0
-3 -91 84 0
-3 -92 85 0
-4 4 0
-4 -86 93 0
-4 -87 94 0
-4 -88 95 0
-4 -89 96 0
-4 -90 97 0
-4 -91 98 0
-4 -92 99 0
-46 46 0
-46 -86 128 0
-46 -87 129 0
-46 -88 130 0
-46 -89 131 0
-46 -90 132 0
-46 -91 133 0
-46 -92 134 0
4 5 51 0
-4 5 50 51 0
-5 4 50 51 0
-50 4 5 51 0
-51 4 5 50 0
4 -5 -50 -51 0
5 -4 -50 -51 0
50 -4 -5 -51 0
51 -4 -5 -50 0
-4 4 0
-4 -93 86 0
-4 -94 87 0
-4 -95 88 0
-4 -96 89 0
-4 -97 90 0
-4 -98 91 0
-4 -99 92 0
-5 5 0
-5 -93 100 0
-5 -94 101 0
-5 -95 102 0
-5 -96 103 0
-5 -97 104 0
-5 -98 105 0
-5 -99 106 0
-51 51 0
-51 -93 135 0
-51 -94 136 0
-51 -95 137 0
-51 -96 138 0
-51 -97 139 0
-51 -98 140 0
-51 -99 141 0
5 56 0
-5 6 55 56 0
-6 5 55 56 0
-55 5 6 56 0
-56 5 6 55 0
5 -6 -55 -56 0
6 -5 -55 -56 0
55 -5 -6 -56 0
56 -5 -6 -55 0
-5 5 0
-5 -100 93 0
-5 -101 94 0
-5 -102 95 0
-5 -103 96 0
-5 -104 97 0
-5 -105 98 0
-5 -106 99 0
-56 56 0
-56 -100 142 0
-56 -101 143 0
-56 -102 144 0
-56 -103 145 0
-56 -104 146 0
-56 -105 147 0
-56 -106 148 0
6 31 32 0
-6 -31 0
-6 -32 0
-31 -32 0
6 7 36 37 0
-6 7 36 37 0
-7 6 36 37 0
-36 6 7 37 0
-37 6 7 36 0
6 -7 -36 -37 0
7 -6 -36 -37 0
36 -6 -7 -37 0
37 -6 -7 -36 0
-6 6 0
-6 -114 107 0
-6 -115 108 0
-6 -116 109 0
-6 -117 110 0
-6 -118 111 0
-6 -119 112 0
-6 -120 113 0
-7 7 0
-7 -114 121 0
-7 -115 122 0
-7 -116 123 0
-7 -117 124 0
-7 -118 125 0
-7 -119 126 0
-7 -120 127 0
-36 36 0
-36 -114 72 0
-36 -115 73 0
-36 -116 74 0
-36 -117 75 0
-36 -118 76 0
-36 -119 77 0
-36 -120 78 0
-37 37 0
-37 -114 156 0
-37 -115 157 0
-37 -116 158 0
-37 -117 159 0
-37 -118 160 0
-37 -119 161 0
-37 -120 162 0
7 8 41 42 0
-7 8 41 42 0
-8 7 41 42 0
-41 7 8 42 0
-42 7 8 41 0
7 -8 -41 -42 0
8 -7 -41 -42 0
41 -7 -8 -42 0
42 -7 -8 -41 0
-7 7 0
-7 -121 114 0
-7 -122 115 0
-7 -123 116 0
-7 -124 117 0
-7 -125 118 0
-7 -126 119 0
-7 -127 120 0
-8 8 0
-8 -121 128 0
-8 -122 129 0
-8 -123 130 0
-8 -124 131 0
-8 -125 132 0
-8 -126 133 0
-8 -127 134 0
-41 41 0
-41 -121 79 0
-41 -122 80 0
-41 -123 81 0
-41 -124 82 0
-41 -125 83 0
-41 -126 84 0
-41 -127 85 0
-42 42 0
-42 -121 163 0
-42 -122 164 0
-42 -123 165 0
-42 -124 166 0
-42 -125 167 0
-42 -126 168 0
-42 -127 169 0
8 9 46 47 0
-8 9 46 47 0
-9 8 46 47 0
-46 8 9 47 0
-47 8 9 46 0
8 -9 -46 -47 0
9 -8 -46 -47 0
46 -8 -9 -47 0
47 -8 -9 -46 0
-8 8 0
-8 -128 121 0
-8 -129 122 0
-8 -130 123 0
-8 -131 124 0
-8 -132 125 0
-8 -133 126 0
-8 -134 127 0
-9 9 0
-9 -128 135 0
-9 -129 136 0
-9 -130 137 0
-9 -131 138 0
-9 -132 139 0
-9 -133 140 0
-9 -134 141 0
-46 46 0
-46 -128 86 0
-46 -129 87 0
-46 -130 88 0
-46 -131 89 0
-46 -132 90 0
-46 -133 91 0
-46 -134 92 0
-47 47 0
-47 -128 170 0
-47 -129 171 0
-47 -130 172 0
-47 -131 173 0
-47 -132 174 0
-47 -133 175 0
-47 -134 176 0
9 10 51 52 0
-9 -10 0
-9 -51 0
-9 -52 0
-10 -51 0
-10 -52 0
-51 -52 0
135 0
-136 0
-137 0
-138 0
-139 0
-140 0
-9 9 0
-9 -135 128 0
-9 -136 129 0
-9 -137 130 0
-9 -138 131 0
-9 -139 132 0
-9 -140 133 0
-9 -141 134 0
-10 10 0
-10 -135 142 0
-10 -136 143 0
-10 -137 144 0
-10 -138 145 0
-10 -139 146 0
-10 -140 147 0
-10 -141 148 0
-51 51 0
-51 -135 93 0
-51 -136 94 0
-51 -137 95 0
-51 -138 96 0
-51 -139 97 0
-51 -140 98 0
-51 -141 99 0
-52 52 0
-52 -135 177 0
-52 -136 178 0
-52 -137 179 0
-52 -138 180 0
-52 -139 181 0
-52 -140 182 0
-52 -141 183 0
10 56 57 0
-10 11 56 57 0
-11 10 56 57 0
-56 10 11 57 0
-57 10 11 56 0
10 -11 -56 -57 0
11 -10 -56 -57 0
56 -10 -11 -57 0
57 -10 -11 -56 0
-10 10 0
-10 -142 135 0
-10 -143 136 0
-10 -144 137 0
-10 -145 138 0
-10 -146 139 0
-10 -147 140 0
-10 -148 141 0
-56 56 0
-56 -142 100 0
-56 -143 101 0
-56 -144 102 0
-56 -145 103 0
-56 -146 104 0
-56 -147 105 0
-56 -148 106 0
-57 57 0
-57 -142 184 0
-57 -143 185 0
-57 -144 186 0
-57 -145 187 0
-57 -146 188 0
-57 -147 189 0
-57 -148 190 0
11 32 33 0
-10 11 32 33 0
-11 10 32 33 0
-32 10 11 33 0
-33 10 11 32 0
10 -11 -32 -33 0
11 -10 -32 -33 0
32 -10 -11 -33 0
33 -10 -11 -32 0
-11 11 0
-11 -149 156 0
-11 -150 157 0
-11 -151 158 0
-11 -152 159 0
-11 -153 160 0
-11 -154 161 0
-11 -155 162 0
-32 32 0
-32 -149 107 0
-32 -150 108 0
-32 -151 109 0
-32 -152 110 0
-32 -153 111 0
-32 -154 112 0
-32 -155 113 0
-33 33 0
-33 -149 191 0
-33 -150 192 0
-33 -151 193 0
-33 -152 194 0
-33 -153 195 0
-33 -154 196 0
-33 -155 197 0
11 12 37 38 0
-11 -12 0
-11 -37 0
-11 -38 0
-12 -37 0
-12 -38 0
-37 -38 0
159 0
-156 0
-157 0
-158 0
-160 0
-161 0
-11 11 0
-11 -156 149 0
-11 -157 150 0
-11 -158 151 0
-11 -159 152 0
-11 -160 153 0
-11 -161 154 0
-11 -162 155 0
-12 12 0
-12 -156 163 0
-12 -157 164 0
-12 -158 165 0
-12 -159 166 0
-12 -160 167 0
-12 -161 168 0
-12 -162 169 0
-37 37 0
-37 -156 114 0
-37 -157 115 0
-37 -158 116 0
-37 -159 117 0
-37 -160 118 0
-37 -161 119 0
-37 -162 120 0
-38 38 0
-38 -156 198 0
-38 -157 199 0
-38 -158 200 0
-38 -159 201 0
-38 -160 202 0
-38 -161 203 0
-38 -162 204 0
12 13 42 43 0
-12 -13 0
-12 -42 0
-12 -43 0
-13 -42 0
-13 -43 0
-42 -43 0
165 0
-163 0
-164 0
-166 0
-167 0
-168 0
-12 12 0
-12 -163 156 0
-12 -164 157 0
-12 -165 158 0
-12 -166 159 0
-12 -167 160 0
-12 -168 161 0
-12 -169 162 0
-13 13 0
-13 -163 170 0
-13 -164 171 0
-13 -165 172 0
-13 -166 173 0
-13 -167 174 0
-13 -168 175 0
-13 -169 176 0
-42 42 0
-42 -163 121 0
-42 -164 122 0
-42 -165 123 0
-42 -166 124 0
-42 -167 125 0
-42 -168 126 0
-42 -169 127 0
-43 43 0
-43 -163 205 0
-43 -164 206 0
-43 -165 207 0
-43 -166 208 0
-43 -167 209 0
-43 -168 210 0
-43 -169 211 0
13 14 47 48 0
-13 14 47 48 0
-14 13 47 48 0
-47 13 14 48 0
-48 13 14 47 0
13 -14 -47 -48 0
14 -13 -47 -48 0
47 -13 -14 -48 0
48 -13 -14 -47 0
-13 13 0
-13 -170 163 0
-13 -171 164 0
-13 -172 165 0
-13 -173 166 0
-13 -174 167 0
-13 -175 168 0
-13 -176 169 0
-14 14 0
-14 -170 177 0
-14 -171 178 0
-14 -172 179 0
-14 -173 180 0
-14 -174 181 0
-14 -175 182 0
-14 -176 183 0
-47 47 0
-47 -170 128 0
-47 -171 129 0
-47 -172 130 0
-47 -173 131 0
-47 -174 132 0
-47 -175 133 0
-47 -176 134 0
-48 48 0
-48 -170 212 0
-48 -171 213 0
-48 -172 214 0
-48 -173 215 0
-48 -174 216 0
-48 -175 217 0
-48 -176 218 0
14 15 52 53 0
-14 -15 0
-14 -52 0
-14 -53 0
-15 -52 0
-15 -53 0
-52 -53 0
179 0
-177 0
-178 0
-180 0
-181 0
-182 0
-14 14 0
-14 -177 170 0
-14 -178 171 0
-14 -179 172 0
-14 -180 173 0
-14 -181 174 0
-14 -182 175 0
-14 -183 176 0
-15 15 0
-15 -177 184 0
-15 -178 185 0
-15 -179 186 0
-15 -180 187 0
-15 -181 188 0
-15 -182 189 0
-15 -183 190 0
-52 52 0
-52 -177 135 0
-52 -178 136 0
-52 -179 137 0
-52 -180 138 0
-52 -181 139 0
-52 -182 140 0
-52 -183 141 0
-53 53 0
-53 -177 219 0
-53 -178 220 0
-53 -179 221 0
-53 -180 222 0
-53 -181 223 0
-53 -182 224 0
-53 -183 225 0
15 57 58 0
-15 16 57 58 0
-16 15 57 58 0
-57 15 16 58 0
-58 15 16 57 0
15 -16 -57 -58 0
16 -15 -57 -58 0
57 -15 -16 -58 0
58 -15 -16 -57 0
-15 15 0
-15 -184 177 0
-15 -185 178 0
-15 -186 179 0
-15 -187 180 0
-15 -188 181 0
-15 -189 182 0
-15 -190 183 0
-57 57 0
-57 -184 142 0
-57 -185 143 0
-57 -186 144 0
-57 -187 145 0
-57 -188 146 0
-57 -189 147 0
-57 -190 148 0
-58 58 0
-58 -184 226 0
-58 -185 227 0
-58 -186 228 0
-58 -187 229 0
-58 -188 230 0
-58 -189 231 0
-58 -190 232 0
16 33 34 0
-15 16 33 34 0
-16 15 33 34 0
-33 15 16 34 0
-34 15 16 33 0
15 -16 -33 -34 0
16 -15 -33 -34 0
33 -15 -16 -34 0
34 -15 -16 -33 0
-16 16 0
-16 -191 198 0
-16 -192 199 0
-16 -193 200 0
-16 -194 201 0
-16 -195 202 0
-16 -196 203 0
-16 -197 204 0
-33 33 0
-33 -191 149 0
-33 -192 150 0
-33 -193 151 0
-33 -194 152 0
-33 -195 153 0
-33 -196 154 0
-33 -197 155 0
-34 34 0
-34 -191 233 0
-34 -192 234 0
-34 -193 235 0
-34 -194 236 0
-34 -195 237 0
-34 -196 238 0
-34 -197 239 0
16 17 38 39 0
-16 -17 0
-16 -38 0
-16 -39 0
-17 -38 0
-17 -39 0
-38 -39 0
203 0
-198 0
-199 0
-200 0
-201 0
-202 0
-16 16 0
-16 -198 191 0
-16 -199 192 0
-16 -200 193 0
-16 -201 194 0
-16 -202 195 0
-16 -203 196 0
-16 -204 197 0
-17 17 0
-17 -198 205 0
-17 -199 206 0
-17 -200 207 0
-17 -201 208 0
-17 -202 209 0
-17 -203 210 0
-17 -204 211 0
-38 38 0
-38 -198 156 0
-38 -199 157 0
-38 -200 158 0
-38 -201 159 0
-38 -202 160 0
-38 -203 161 0
-38 -204 162 0
-39 39 0
-39 -198 240 0
-39 -199 241 0
-39 -200 242 0
-39 -201 243 0
-39 -202 244 0
-39 -203 245 0
-39 -204 246 0
17 18 43 44 0
-17 -18 0
-17 -43 0
-17 -44 0
-18 -43 0
-18 -44 0
-43 -44 0
211 0
-205 0
-206 0
-207 0
-208 0
-209 0
-210 0
-17 17 0
-17 -205 198 0
-17 -206 199 0
-17 -207 200 0
-17 -208 201 0
-17 -209 202 0
-17 -210 203 0
-17 -211 204 0
-18 18 0
-18 -205 212 0
-18 -206 213 0
-18 -207 214 0
-18 -208 215 0
-18 -209 216 0
-18 -210 217 0
-18 -211 218 0
-43 43 0
-43 -205 163 0
-43 -206 164 0
-43 -207 165 0
-43 -208 166 0
-43 -209 167 0
-43 -210 168 0
-43 -211 169 0
-44 44 0
-44 -205 247 0
-44 -206 248 0
-44 -207 249 0
-44 -208 250 0
-44 -209 251 0
-44 -210 252 0
-44 -211 253 0
18 19 48 49 0
-18 19 48 49 0
-19 18 48 49 0
-48 18 19 49 0
-49 18 19 48 0
18 -19 -48 -49 0
19 -18 -48 -49 0
48 -18 -19 -49 0
49 -18 -19 -48 0
-18 18 0
-18 -212 205 0
-18 -213 206 0
-18 -214 207 0
-18 -215 208 0
-18 -216 209 0
-18 -217 210 0
-18 -218 211 0
-19 19 0
-19 -212 219 0
-19 -213 220 0
-19 -214 221 0
-19 -215 222 0
-19 -216 223 0
-19 -217 224 0
-19 -218 225 0
-48 48 0
-48 -212 170 0
-48 -213 171 0
-48 -214 172 0
-48 -215 173 0
-48 -216 174 0
-48 -217 175 0
-48 -218 176 0
-49 49 0
-49 -212 254 0
-49 -213 255 0
-49 -214 256 0
-49 -215 257 0
-49 -216 258 0
-49 -217 259 0
-49 -218 260 0
19 20 53 54 0
-19 20 53 54 0
-20 19 53 54 0
-53 19 20 54 0
-54 19 20 53 0
19 -20 -53 -54 0
20 -19 -53 -54 0
53 -19 -20 -54 0
54 -19 -20 -53 0
-19 19 0
-19 -219 212 0
-19 -220 213 0
-19 -221 214 0
-19 -222 215 0
-19 -223 216 0
-19 -224 217 0
-19 -225 218 0
-20 20 0
-20 -219 226 0
-20 -220 227 0
-20 -221 228 0
-20 -222 229 0
-20 -223 230 0
-20 -224 231 0
-20 -225 232 0
-53 53 0
-53 -219 177 0
-53 -220 178 0
-53 -221 179 0
-53 -222 180 0
-53 -223 181 0
-53 -224 182 0
-53 -225 183 0
-54 54 0
-54 -219 261 0
-54 -220 262 0
-54 -221 263 0
-54 -222 264 0
-54 -223 265 0
-54 -224 266 0
-54 -225 267 0
20 58 59 0
-20 21 58 59 0
-21 20 58 59 0
-58 20 21 59 0
-59 20 21 58 0
20 -21 -58 -59 0
21 -20 -58 -59 0
58 -20 -21 -59 0
59 -20 -21 -58 0
-20 20 0
-20 -226 219 0
-20 -227 220 0
-20 -228 221 0
-20 -229 222 0
-20 -230 223 0
-20 -231 224 0
-20 -232 225 0
-58 58 0
-58 -226 184 0
-58 -227 185 0
-58 -228 186 0
-58 -229 187 0
-58 -230 188 0
-58 -231 189 0
-58 -232 190 0
-59 59 0
-59 -226 268 0
-59 -227 269 0
-59 -228 270 0
-59 -229 271 0
-59 -230 272 0
-59 -231 273 0
-59 -232 274 0
21 34 35 0
-20 21 34 35 0
-21 20 34 35 0
-34 20 21 35 0
-35 20 21 34 0
20 -21 -34 -35 0
21 -20 -34 -35 0
34 -20 -21 -35 0
35 -20 -21 -34 0
-21 21 0
-21 -233 240 0
-21 -234 241 0
-21 -235 242 0
-21 -236 243 0
-21 -237 244 0
-21 -238 245 0
-21 -239 246 0
-34 34 0
-34 -233 191 0
-34 -234 192 0
-34 -235 193 0
-34 -236 194 0
-34 -237 195 0
-34 -238 196 0
-34 -239 197 0
-35 35 0
-35 -233 275 0
-35 -234 276 0
-35 -235 277 0
-35 -236 278 0
-35 -237 279 0
-35 -238 280 0
-35 -239 281 0
21 22 39 40 0
-21 -22 0
-21 -39 0
-21 -40 0
-22 -39 0
-22 -40 0
-39 -40 0
244 0
-240 0
-241 0
-242 0
-243 0
-245 0
-21 21 0
-21 -240 233 0
-21 -241 234 0
-21 -242 235 0
-21 -243 236 0
-21 -244 237 0
-21 -245 238 0
-21 -246 239 0
-22 22 0
-22 -240 247 0
-22 -241 248 0
-22 -242 249 0
-22 -243 250 0
-22 -244 251 0
-22 -245 252 0
-22 -246 253 0
-39 39 0
-39 -240 198 0
-39 -241 199 0
-39 -242 200 0
-39 -243 201 0
-39 -244 202 0
-39 -245 203 0
-39 -246 204 0
-40 40 0
-40 -240 282 0
-40 -241 283 0
-40 -242 284 0
-40 -243 285 0
-40 -244 286 0
-40 -245 287 0
-40 -246 288 0
22 23 44 45 0
-22 23 44 45 0
-23 22 44 45 0
-44 22 23 45 0
-45 22 23 44 0
22 -23 -44 -45 0
23 -22 -44 -45 0
44 -22 -23 -45 0
45 -22 -23 -44 0
-22 22 0
-22 -247 240 0
-22 -248 241 0
-22 -249 242 0
-22 -250 243 0
-22 -251 244 0
-22 -252 245 0
-22 -253 246 0
-23 23 0
-23 -247 254 0
-23 -248 255 0
-23 -249 256 0
-23 -250 257 0
-23 -251 258 0
-23 -252 259 0
-23 -253 260 0
-44 44 0
-44 -247 205 0
-44 -248 206 0
-44 -249 207 0
-44 -250 208 0
-44 -251 209 0
-44 -252 210 0
-44 -253 211 0
-45 45 0
-45 -247 289 0
-45 -248 290 0
-45 -249 291 0
-45 -250 292 0
-45 -251 293 0
-45 -252 294 0
-45 -253 295 0
23 24 49 50 0
-23 24 49 50 0
-24 23 49 50 0
-49 23 24 50 0
-50 23 24 49 0
23 -24 -49 -50 0
24 -23 -49 -50 0
49 -23 -24 -50 0
50 -23 -24 -49 0
-23 23 0
-23 -254 247 0
-23 -255 248 0
-23 -256 249 0
-23 -257 250 0
-23 -258 251 0
-23 -259 252 0
-23 -260 253 0
-24 24 0
-24 -254 261 0
-24 -255 262 0
-24 -256 263 0
-24 -257 264 0
-24 -258 265 0
-24 -259 266 0
-24 -260 267 0
-49 49 0
-49 -254 212 0
-49 -255 213 0
-49 -256 214 0
-49 -257 215 0
-49 -258 216 0
-49 -259 217 0
-49 -260 218 0
-50 50 0
-50 -254 296 0
-50 -255 297 0
-50 -256 298 0
-50 -257 299 0
-50 -258 300 0
-50 -259 301 0
-50 -260 302 0
24 25 54 55 0
-24 -25 0
-24 -54 0
-24 -55 0
-25 -54 0
-25 -55 0
-54 -55 0
267 0
-261 0
-262 0
-263 0
-264 0
-265 0
-266 0
-24 24 0
-24 -261 254 0
-24 -262 255 0
-24 -263 256 0
-24 -264 257 0
-24 -265 258 0
-24 -266 259 0
-24 -267 260 0
-25 25 0
-25 -261 268 0
-25 -262 269 0
-25 -263 270 0
-25 -264 271 0
-25 -265 272 0
-25 -266 273 0
-25 -267 274 0
-54 54 0
-54 -261 219 0
-54 -262 220 0
-54 -263 221 0
-54 -264 222 0
-54 -265 223 0
-54 -266 224 0
-54 -267 225 0
-55 55 0
-55 -261 303 0
-55 -262 304 0
-55 -263 305 0
-55 -264 306 0
-55 -265 307 0
-55 -266 308 0
-55 -267 309 0
25 59 60 0
-25 26 59 60 0
-26 25 59 60 0
-59 25 26 60 0
-60 25 26 59 0
25 -26 -59 -60 0
26 -25 -59 -60 0
59 -25 -26 -60 0
60 -25 -26 -59 0
-25 25 0
-25 -268 261 0
-25 -269 262 0
-25 -270 263 0
-25 -271 264 0
-25 -272 265 0
-25 -273 266 0
-25 -274 267 0
-59 59 0
-59 -268 226 0
-59 -269 227 0
-59 -270 228 0
-59 -271 229 0
-59 -272 230 0
-59 -273 231 0
-59 -274 232 0
-60 60 0
-60 -268 310 0
-60 -269 311 0
-60 -270 312 0
-60 -271 313 0
-60 -272 314 0
-60 -273 315 0
-60 -274 316 0
26 35 0
-25 26 35 36 0
-26 25 35 36 0
-35 25 26 36 0
-36 25 26 35 0
25 -26 -35 -36 0
26 -25 -35 -36 0
35 -25 -26 -36 0
36 -25 -26 -35 0
-26 26 0
-26 -275 282 0
-26 -276 283 0
-26 -277 284 0
-26 -278 285 0
-26 -279 286 0
-26 -280 287 0
-26 -281 288 0
-35 35 0
-35 -275 233 0
-35 -276 234 0
-35 -277 235 0
-35 -278 236 0
-35 -279 237 0
-35 -280 238 0
-35 -281 239 0
26 27 40 0
-26 27 40 41 0
-27 26 40 41 0
-40 26 27 41 0
-41 26 27 40 0
26 -27 -40 -41 0
27 -26 -40 -41 0
40 -26 -27 -41 0
41 -26 -27 -40 0
-26 26 0
-26 -282 275 0
-26 -283 276 0
-26 -284 277 0
-26 -285 278 0
-26 -286 279 0
-26 -287 280 0
-26 -288 281 0
-27 27 0
-27 -282 289 0
-27 -283 290 0
-27 -284 291 0
-27 -285 292 0
-27 -286 293 0
-27 -287 294 0
-27 -288 295 0
-40 40 0
-40 -282 240 0
-40 -283 241 0
-40 -284 242 0
-40 -285 243 0
-40 -286 244 0
-40 -287 245 0
-40 -288 246 0
27 28 45 0
-27 -28 0
-27 -45 0
-28 -45 0
28 29 50 0
-28 -29 0
-28 -50 0
-29 -50 0
29 30 55 0
-29 -30 0
-29 -55 0
-30 -55 0
30 60 0
-30 31 60 61 0
-31 30 60 61 0
-60 30 31 61 0
-61 30 31 60 0
30 -31 -60 -61 0
31 -30 -60 -61 0
60 -30 -31 -61 0
61 -30 -31 -60 0
-30 30 0
-30 -310 303 0
-30 -311 304 0
-30 -312 305 0
-30 -313 306 0
-30 -314 307 0
-30 -315 308 0
-30 -316 309 0
-60 60 0
-60 -310 268 0
-60 -311 269 0
-60 -312 270 0
-60 -313 271 0
-60 -314 272 0
-60 -315 273 0
-60 -316 274 0